
===== New CPLEX run =====
Instance: /home/yorig/tuner/mpils-tests/instances/miplib/medium-1/neos-1456979.mps
Config: /scratch/yorig/mpils-results-grid-seconds-10-no-mip-start/medium-1/2proc/seed-5/8_neos-1456979_seed-5_20260503_052435/expansion/config_param_CPXPARAM_MIP_Strategy_PresolveNode_-1_iter_4.prm
========================

Selected objective sense:  MINIMIZE
Selected objective  name:  R6771
Selected RHS        name:  B
Selected bound      name:  BOUND
Version identifier: 22.1.2.0 | 2024-11-26 | 0edbb82fd
CPXPARAM_Threads                                 8
CPXPARAM_Parallel                                1
CPXPARAM_MIP_Cuts_Cliques                        1
CPXPARAM_MIP_Strategy_NodeSelect                 3
CPXPARAM_MIP_Strategy_PresolveNode               -1
CPXPARAM_MIP_Cuts_FlowCovers                     2
CPXPARAM_MIP_Cuts_Implied                        -1
CPXPARAM_MIP_Cuts_GUBCovers                      2
CPXPARAM_MIP_Limits_GomoryCand                   800
CPXPARAM_MIP_Cuts_Gomory                         1
CPXPARAM_MIP_Cuts_PathCut                        -1
CPXPARAM_MIP_Cuts_MIRCut                         2
CPXPARAM_MIP_Cuts_Disjunctive                    -1
CPXPARAM_Emphasis_MIP                            5
CPXPARAM_MIP_Strategy_Dive                       1
CPXPARAM_TimeLimit                               10
CPXPARAM_MIP_Limits_ProbeTime                    60
Tried aggregator 1 time.
MIP Presolve eliminated 175 rows and 10 columns.
MIP Presolve modified 4950 coefficients.
Reduced MIP has 6595 rows, 4595 columns, and 35740 nonzeros.
Reduced MIP has 4245 binaries, 175 generals, 0 SOSs, and 0 indicators.
Presolve time = 0.01 sec. (15.92 ticks)
Probing time = 0.03 sec. (33.51 ticks)
Tried aggregator 1 time.
Detecting symmetries...
MIP Presolve modified 90 coefficients.
Reduced MIP has 6595 rows, 4595 columns, and 35740 nonzeros.
Reduced MIP has 4245 binaries, 175 generals, 0 SOSs, and 0 indicators.
Presolve time = 0.02 sec. (27.11 ticks)
Probing time = 0.15 sec. (33.23 ticks)
Clique table members: 20433.
MIP emphasis: heuristic.
MIP search method: dynamic search.
Parallel mode: deterministic, using up to 8 threads.
Root relaxation solution time = 0.02 sec. (38.64 ticks)

        Nodes                                         Cuts/
   Node  Left     Objective  IInf  Best Integer    Best Bound    ItCnt     Gap

      0     0      154.0000   120                    154.0000      736         
      0     0      154.0000   129                    Cuts: 76      897         
*     0+    0                          220.0000      154.0000            30.00%
      0     0      154.0000   126      220.0000      Cuts: 66     1056   30.00%
*     0+    0                          196.0000      154.0000            21.43%
      0     0      154.0000   153      196.0000     Cuts: 228     1280   21.43%
*     0+    0                          190.0000      154.0000            18.95%
      0     0  -1.00000e+75     0      190.0000      154.0000     1280   18.95%
*     0+    0                          187.0000      154.0000            17.65%
      0     2      154.0000    68      187.0000      154.0000     1280   17.65%
Elapsed time = 5.11 sec. (3061.51 ticks, tree = 0.02 MB, solutions = 4)
    157   117      164.1288   131      187.0000      157.0000     5195   16.04%
    363   326      185.6185   111      187.0000      157.0000    12968   16.04%
    596   458      170.1535   116      187.0000      157.0000    18651   16.04%
    806   681      164.3721   113      187.0000      157.0000    28790   16.04%
   1027   836      178.0000   133      187.0000      157.0000    33872   16.04%
   1282  1109      175.0000   149      187.0000      157.0000    44023   16.04%
   1524  1229      171.4213    70      187.0000      157.0000    48145   16.04%
   1781  1485      174.0116    43      187.0000      157.0000    59242   16.04%
   2061  1699      178.1071    39      187.0000      157.0000    67816   16.04%
   3093  2433      173.5669    89      187.0000      157.0000   101531   16.04%
Elapsed time = 9.67 sec. (6168.91 ticks, tree = 121.92 MB, solutions = 4)

GUB cover cuts applied:  0
Clique cuts applied:  1
Cover cuts applied:  18
Flow cuts applied:  10
Mixed integer rounding cuts applied:  221
Zero-half cuts applied:  18
Gomory fractional cuts applied:  10

Root node processing (before b&c):
  Real time             =    4.96 sec. (3058.75 ticks)
Parallel b&c, 8 threads:
  Real time             =    5.04 sec. (3422.90 ticks)
  Sync time (average)   =    1.92 sec.
  Wait time (average)   =    0.00 sec.
                          ------------
Total (root+branch&cut) =   10.00 sec. (6481.65 ticks)
Gap: 16.04%
Upper bound: 187
Lower bound: 157
End of CPLEX run. Time: 10.006 seconds

===== New CPLEX run =====
Instance: /home/yorig/tuner/mpils-tests/instances/miplib/medium-1/neos-1456979.mps
Config: /scratch/yorig/mpils-results-grid-seconds-10-no-mip-start/medium-1/2proc/seed-5/8_neos-1456979_seed-5_20260503_052435/expansion/config_param_CPXPARAM_MIP_Strategy_PresolveNode_1_iter_4.prm
========================

Selected objective sense:  MINIMIZE
Selected objective  name:  R6771
Selected RHS        name:  B
Selected bound      name:  BOUND
Version identifier: 22.1.2.0 | 2024-11-26 | 0edbb82fd
CPXPARAM_Threads                                 8
CPXPARAM_Parallel                                1
CPXPARAM_MIP_Cuts_Cliques                        1
CPXPARAM_MIP_Strategy_NodeSelect                 3
CPXPARAM_MIP_Strategy_PresolveNode               1
CPXPARAM_MIP_Cuts_FlowCovers                     2
CPXPARAM_MIP_Cuts_Implied                        -1
CPXPARAM_MIP_Cuts_GUBCovers                      2
CPXPARAM_MIP_Limits_GomoryCand                   800
CPXPARAM_MIP_Cuts_Gomory                         1
CPXPARAM_MIP_Cuts_PathCut                        -1
CPXPARAM_MIP_Cuts_MIRCut                         2
CPXPARAM_MIP_Cuts_Disjunctive                    -1
CPXPARAM_Emphasis_MIP                            5
CPXPARAM_MIP_Strategy_Dive                       1
CPXPARAM_TimeLimit                               10
CPXPARAM_MIP_Limits_ProbeTime                    60
Tried aggregator 1 time.
MIP Presolve eliminated 175 rows and 10 columns.
MIP Presolve modified 4950 coefficients.
Reduced MIP has 6595 rows, 4595 columns, and 35740 nonzeros.
Reduced MIP has 4245 binaries, 175 generals, 0 SOSs, and 0 indicators.
Presolve time = 0.01 sec. (15.92 ticks)
Probing time = 0.03 sec. (33.51 ticks)
Tried aggregator 1 time.
Detecting symmetries...
MIP Presolve modified 90 coefficients.
Reduced MIP has 6595 rows, 4595 columns, and 35740 nonzeros.
Reduced MIP has 4245 binaries, 175 generals, 0 SOSs, and 0 indicators.
Presolve time = 0.02 sec. (27.11 ticks)
Probing time = 0.16 sec. (33.23 ticks)
Clique table members: 20433.
MIP emphasis: heuristic.
MIP search method: dynamic search.
Parallel mode: deterministic, using up to 8 threads.
Root relaxation solution time = 0.02 sec. (38.64 ticks)

        Nodes                                         Cuts/
   Node  Left     Objective  IInf  Best Integer    Best Bound    ItCnt     Gap

      0     0      154.0000   120                    154.0000      736         
      0     0      154.0000   129                    Cuts: 76      897         
*     0+    0                          220.0000      154.0000            30.00%
      0     0      154.0000   126      220.0000      Cuts: 66     1056   30.00%
*     0+    0                          196.0000      154.0000            21.43%
      0     0      154.0000   153      196.0000     Cuts: 228     1280   21.43%
*     0+    0                          190.0000      154.0000            18.95%
      0     0  -1.00000e+75     0      190.0000      154.0000     1280   18.95%
*     0+    0                          187.0000      154.0000            17.65%
      0     2      154.0000    68      187.0000      154.0000     1280   17.65%
Elapsed time = 5.30 sec. (3061.51 ticks, tree = 0.02 MB, solutions = 4)
    128    91      167.3494    61      187.0000      155.1111     5740   17.05%
    347   279      164.8750   123      187.0000      155.1111    14244   17.05%
    540   423      174.6667   132      187.0000      155.1111    21278   17.05%
    743   610      166.8220   126      187.0000      155.1111    29410   17.05%
*   763   585      integral     0      183.0000      155.1111    28385   15.24%
    940   702      169.8333   144      183.0000      155.1111    37128   15.24%
   1204   924      178.4695    77      183.0000      155.1111    45956   15.24%
   1459  1096      177.1793    29      183.0000      155.1111    53658   15.24%
   1745  1272      176.5827    45      183.0000      155.1111    62631   15.24%
   2046  1505      179.3200    58      183.0000      155.1111    72511   15.24%
   3132  2282      166.6667   119      183.0000      155.1111   102497   15.24%
Elapsed time = 9.51 sec. (6169.22 ticks, tree = 114.32 MB, solutions = 5)

Performing restart 1

Repeating presolve.
Tried aggregator 2 times.
MIP Presolve eliminated 157 rows and 127 columns.
MIP Presolve modified 5392 coefficients.
Aggregator did 5 substitutions.
Reduced MIP has 6433 rows, 4463 columns, and 33211 nonzeros.
Reduced MIP has 4123 binaries, 170 generals, 0 SOSs, and 0 indicators.
Presolve time = 0.03 sec. (48.02 ticks)
Presolve time = 0.01 sec. (6.82 ticks)
Represolve time = 0.21 sec. (97.25 ticks)

Root node processing (before b&c):
  Real time             =    5.08 sec. (3058.48 ticks)
Parallel b&c, 8 threads:
  Real time             =    4.93 sec. (3479.17 ticks)
  Sync time (average)   =    1.90 sec.
  Wait time (average)   =    0.00 sec.
                          ------------
Total (root+branch&cut) =   10.00 sec. (6537.65 ticks)
Gap: 15.24%
Upper bound: 183
Lower bound: 155.111
End of CPLEX run. Time: 10.0064 seconds

===== New CPLEX run =====
Instance: /home/yorig/tuner/mpils-tests/instances/miplib/medium-1/neos-1456979.mps
Config: /scratch/yorig/mpils-results-grid-seconds-10-no-mip-start/medium-1/2proc/seed-5/8_neos-1456979_seed-5_20260503_052435/expansion/config_param_CPXPARAM_MIP_Strategy_PresolveNode_2_iter_4.prm
========================

Selected objective sense:  MINIMIZE
Selected objective  name:  R6771
Selected RHS        name:  B
Selected bound      name:  BOUND
Version identifier: 22.1.2.0 | 2024-11-26 | 0edbb82fd
CPXPARAM_Threads                                 8
CPXPARAM_Parallel                                1
CPXPARAM_MIP_Cuts_Cliques                        1
CPXPARAM_MIP_Strategy_NodeSelect                 3
CPXPARAM_MIP_Strategy_PresolveNode               2
CPXPARAM_MIP_Cuts_FlowCovers                     2
CPXPARAM_MIP_Cuts_Implied                        -1
CPXPARAM_MIP_Cuts_GUBCovers                      2
CPXPARAM_MIP_Limits_GomoryCand                   800
CPXPARAM_MIP_Cuts_Gomory                         1
CPXPARAM_MIP_Cuts_PathCut                        -1
CPXPARAM_MIP_Cuts_MIRCut                         2
CPXPARAM_MIP_Cuts_Disjunctive                    -1
CPXPARAM_Emphasis_MIP                            5
CPXPARAM_MIP_Strategy_Dive                       1
CPXPARAM_TimeLimit                               10
CPXPARAM_MIP_Limits_ProbeTime                    60
Tried aggregator 1 time.
MIP Presolve eliminated 175 rows and 10 columns.
MIP Presolve modified 4950 coefficients.
Reduced MIP has 6595 rows, 4595 columns, and 35740 nonzeros.
Reduced MIP has 4245 binaries, 175 generals, 0 SOSs, and 0 indicators.
Presolve time = 0.01 sec. (15.92 ticks)
Probing time = 0.04 sec. (33.51 ticks)
Tried aggregator 1 time.
Detecting symmetries...
MIP Presolve modified 90 coefficients.
Reduced MIP has 6595 rows, 4595 columns, and 35740 nonzeros.
Reduced MIP has 4245 binaries, 175 generals, 0 SOSs, and 0 indicators.
Presolve time = 0.02 sec. (27.11 ticks)
Probing time = 0.16 sec. (33.23 ticks)
Clique table members: 20433.
MIP emphasis: heuristic.
MIP search method: dynamic search.
Parallel mode: deterministic, using up to 8 threads.
Root relaxation solution time = 0.03 sec. (38.64 ticks)

        Nodes                                         Cuts/
   Node  Left     Objective  IInf  Best Integer    Best Bound    ItCnt     Gap

      0     0      154.0000   120                    154.0000      736         
      0     0      154.0000   129                    Cuts: 76      897         
*     0+    0                          220.0000      154.0000            30.00%
      0     0      154.0000   126      220.0000      Cuts: 66     1056   30.00%
*     0+    0                          196.0000      154.0000            21.43%
      0     0      154.0000   153      196.0000     Cuts: 228     1280   21.43%
*     0+    0                          190.0000      154.0000            18.95%
      0     0  -1.00000e+75     0      190.0000      154.0000     1280   18.95%
*     0+    0                          187.0000      154.0000            17.65%
      0     2      154.0000    68      187.0000      154.0000     1280   17.65%
Elapsed time = 5.13 sec. (3062.74 ticks, tree = 0.02 MB, solutions = 4)
    100    75      167.5000    88      187.0000      157.0000     4033   16.04%
    290   243      174.0000   124      187.0000      157.0000    10022   16.04%
    457   391      169.8288    99      187.0000      157.0000    16344   16.04%
    628   554      175.0000   123      187.0000      157.0000    23185   16.04%
    784   688      179.5000   137      187.0000      157.0000    28938   16.04%
    930   809      173.3333   142      187.0000      157.0000    34124   16.04%
   1073   939      180.5000   137      187.0000      157.0000    42689   16.04%
   1254  1060      177.5000    73      187.0000      157.0000    48561   16.04%
   1405  1249      168.2500    98      187.0000      157.0000    56705   16.04%

Performing restart 1

Repeating presolve.
Tried aggregator 1 time.
MIP Presolve eliminated 41 rows and 35 columns.
MIP Presolve modified 4683 coefficients.
Reduced MIP has 6554 rows, 4560 columns, and 34073 nonzeros.
Reduced MIP has 4210 binaries, 175 generals, 0 SOSs, and 0 indicators.
Presolve time = 0.02 sec. (33.85 ticks)
Tried aggregator 1 time.
Reduced MIP has 6554 rows, 4560 columns, and 34073 nonzeros.
Reduced MIP has 4210 binaries, 175 generals, 0 SOSs, and 0 indicators.
Presolve time = 0.02 sec. (24.99 ticks)
Represolve time = 0.12 sec. (104.36 ticks)
   1716     0      154.0000   106      187.0000      Cuts: 43    73580   16.04%
   1716     0      154.3368   164      187.0000      Cuts: 82    73812   16.04%
Advanced basis not built.

GUB cover cuts applied:  0
Clique cuts applied:  1
Cover cuts applied:  3
Flow cuts applied:  1
Mixed integer rounding cuts applied:  196
Zero-half cuts applied:  22
Gomory fractional cuts applied:  19

Root node processing (before b&c):
  Real time             =    4.94 sec. (3058.91 ticks)
Parallel b&c, 8 threads:
  Real time             =    5.06 sec. (4364.25 ticks)
  Sync time (average)   =    1.24 sec.
  Wait time (average)   =    0.00 sec.
                          ------------
Total (root+branch&cut) =   10.00 sec. (7423.17 ticks)
Gap: 16.04%
Upper bound: 187
Lower bound: 157
End of CPLEX run. Time: 10.0045 seconds

===== New CPLEX run =====
Instance: /home/yorig/tuner/mpils-tests/instances/miplib/medium-1/neos-1456979.mps
Config: /scratch/yorig/mpils-results-grid-seconds-10-no-mip-start/medium-1/2proc/seed-5/8_neos-1456979_seed-5_20260503_052435/expansion/config_param_CPXPARAM_MIP_Strategy_PresolveNode_3_iter_4.prm
========================

Selected objective sense:  MINIMIZE
Selected objective  name:  R6771
Selected RHS        name:  B
Selected bound      name:  BOUND
Version identifier: 22.1.2.0 | 2024-11-26 | 0edbb82fd
CPXPARAM_Threads                                 8
CPXPARAM_Parallel                                1
CPXPARAM_MIP_Cuts_Cliques                        1
CPXPARAM_MIP_Strategy_NodeSelect                 3
CPXPARAM_MIP_Strategy_PresolveNode               3
CPXPARAM_MIP_Cuts_FlowCovers                     2
CPXPARAM_MIP_Cuts_Implied                        -1
CPXPARAM_MIP_Cuts_GUBCovers                      2
CPXPARAM_MIP_Limits_GomoryCand                   800
CPXPARAM_MIP_Cuts_Gomory                         1
CPXPARAM_MIP_Cuts_PathCut                        -1
CPXPARAM_MIP_Cuts_MIRCut                         2
CPXPARAM_MIP_Cuts_Disjunctive                    -1
CPXPARAM_Emphasis_MIP                            5
CPXPARAM_MIP_Strategy_Dive                       1
CPXPARAM_TimeLimit                               10
CPXPARAM_MIP_Limits_ProbeTime                    60
Tried aggregator 1 time.
MIP Presolve eliminated 175 rows and 10 columns.
MIP Presolve modified 4950 coefficients.
Reduced MIP has 6595 rows, 4595 columns, and 35740 nonzeros.
Reduced MIP has 4245 binaries, 175 generals, 0 SOSs, and 0 indicators.
Presolve time = 0.01 sec. (15.92 ticks)
Probing time = 0.03 sec. (33.51 ticks)
Tried aggregator 1 time.
Detecting symmetries...
MIP Presolve modified 90 coefficients.
Reduced MIP has 6595 rows, 4595 columns, and 35740 nonzeros.
Reduced MIP has 4245 binaries, 175 generals, 0 SOSs, and 0 indicators.
Presolve time = 0.02 sec. (27.11 ticks)
Probing time = 0.06 sec. (33.23 ticks)
Clique table members: 20433.
MIP emphasis: heuristic.
MIP search method: dynamic search.
Parallel mode: deterministic, using up to 8 threads.
Root relaxation solution time = 0.04 sec. (38.64 ticks)

        Nodes                                         Cuts/
   Node  Left     Objective  IInf  Best Integer    Best Bound    ItCnt     Gap

      0     0      154.0000   120                    154.0000      736         
      0     0      154.0000   129                    Cuts: 76      897         
*     0+    0                          220.0000      154.0000            30.00%
      0     0      154.0000   126      220.0000      Cuts: 66     1056   30.00%
*     0+    0                          196.0000      154.0000            21.43%
      0     0      154.0000   153      196.0000     Cuts: 228     1280   21.43%
*     0+    0                          190.0000      154.0000            18.95%
      0     0  -1.00000e+75     0      190.0000      154.0000     1280   18.95%
*     0+    0                          187.0000      154.0000            17.65%
      0     2      154.0000    68      187.0000      154.0000     1280   17.65%
Elapsed time = 5.13 sec. (3150.22 ticks, tree = 0.02 MB, solutions = 4)
      4     5      161.0000   110      187.0000      154.0000     1532   17.65%
     20    16      157.1503   110      187.0000      157.0000     2645   16.04%
     53    45      171.5070   150      187.0000      157.1503     3894   15.96%
     85    77      169.2160   110      187.0000      157.1503     5284   15.96%
    119   100      165.1250   125      187.0000      157.1503     6037   15.96%
    159   141      173.0000   117      187.0000      157.1503     7430   15.96%
    193   167      173.0000    58      187.0000      157.1503     8256   15.96%
    234   215      170.2500   116      187.0000      157.1503     9957   15.96%
    287   256      171.0000    95      187.0000      157.1503    11115   15.96%
    507   437      180.0000    62      187.0000      157.1503    18450   15.96%
Elapsed time = 9.64 sec. (6340.97 ticks, tree = 16.55 MB, solutions = 4)

GUB cover cuts applied:  0
Clique cuts applied:  1
Cover cuts applied:  11
Flow cuts applied:  2
Mixed integer rounding cuts applied:  199
Zero-half cuts applied:  18
Gomory fractional cuts applied:  10

Root node processing (before b&c):
  Real time             =    4.81 sec. (3058.75 ticks)
Parallel b&c, 8 threads:
  Real time             =    5.19 sec. (3669.82 ticks)
  Sync time (average)   =    1.59 sec.
  Wait time (average)   =    0.00 sec.
                          ------------
Total (root+branch&cut) =   10.00 sec. (6728.57 ticks)
Gap: 15.96%
Upper bound: 187
Lower bound: 157.15
End of CPLEX run. Time: 10.005 seconds

===== New CPLEX run =====
Instance: /home/yorig/tuner/mpils-tests/instances/miplib/medium-1/neos-1456979.mps
Config: /scratch/yorig/mpils-results-grid-seconds-10-no-mip-start/medium-1/2proc/seed-5/8_neos-1456979_seed-5_20260503_052435/expansion/config_param_CPXPARAM_MIP_Strategy_Order_0_iter_4.prm
========================

Selected objective sense:  MINIMIZE
Selected objective  name:  R6771
Selected RHS        name:  B
Selected bound      name:  BOUND
Version identifier: 22.1.2.0 | 2024-11-26 | 0edbb82fd
CPXPARAM_Threads                                 8
CPXPARAM_Parallel                                1
CPXPARAM_MIP_Cuts_Cliques                        1
CPXPARAM_MIP_Strategy_NodeSelect                 3
CPXPARAM_MIP_Strategy_Order                      0
CPXPARAM_MIP_Cuts_FlowCovers                     2
CPXPARAM_MIP_Cuts_Implied                        -1
CPXPARAM_MIP_Cuts_GUBCovers                      2
CPXPARAM_MIP_Limits_GomoryCand                   800
CPXPARAM_MIP_Cuts_Gomory                         1
CPXPARAM_MIP_Cuts_PathCut                        -1
CPXPARAM_MIP_Cuts_MIRCut                         2
CPXPARAM_MIP_Cuts_Disjunctive                    -1
CPXPARAM_Emphasis_MIP                            5
CPXPARAM_MIP_Strategy_Dive                       1
CPXPARAM_TimeLimit                               10
CPXPARAM_MIP_Limits_ProbeTime                    60
Tried aggregator 1 time.
MIP Presolve eliminated 175 rows and 10 columns.
MIP Presolve modified 4950 coefficients.
Reduced MIP has 6595 rows, 4595 columns, and 35740 nonzeros.
Reduced MIP has 4245 binaries, 175 generals, 0 SOSs, and 0 indicators.
Presolve time = 0.01 sec. (15.92 ticks)
Probing time = 0.03 sec. (33.51 ticks)
Tried aggregator 1 time.
Detecting symmetries...
MIP Presolve modified 90 coefficients.
Reduced MIP has 6595 rows, 4595 columns, and 35740 nonzeros.
Reduced MIP has 4245 binaries, 175 generals, 0 SOSs, and 0 indicators.
Presolve time = 0.02 sec. (27.11 ticks)
Probing time = 0.06 sec. (33.23 ticks)
Clique table members: 20433.
MIP emphasis: heuristic.
MIP search method: dynamic search.
Parallel mode: deterministic, using up to 8 threads.
Root relaxation solution time = 0.04 sec. (38.64 ticks)

        Nodes                                         Cuts/
   Node  Left     Objective  IInf  Best Integer    Best Bound    ItCnt     Gap

      0     0      154.0000   120                    154.0000      736         
      0     0      154.0000   129                    Cuts: 76      897         
*     0+    0                          220.0000      154.0000            30.00%
      0     0      154.0000   126      220.0000      Cuts: 66     1056   30.00%
*     0+    0                          196.0000      154.0000            21.43%
      0     0      154.0000   153      196.0000     Cuts: 228     1280   21.43%
*     0+    0                          190.0000      154.0000            18.95%
      0     0  -1.00000e+75     0      190.0000      154.0000     1280   18.95%
*     0+    0                          187.0000      154.0000            17.65%
      0     2      154.0000    68      187.0000      154.0000     1280   17.65%
Elapsed time = 4.75 sec. (3061.51 ticks, tree = 0.02 MB, solutions = 4)
    123    84      165.6977   134      187.0000      155.1111     5307   17.05%
    320   276      170.6030    83      187.0000      155.1111    12064   17.05%
    515   454      186.0000    58      187.0000      155.1111    20089   17.05%
    722   623      171.8427    87      187.0000      155.1111    27384   17.05%
    898   813      178.0000    93      187.0000      155.1111    35196   17.05%
   1023   870      185.0000   105      187.0000      155.1111    39538   17.05%
   1261  1027      183.1617    26      187.0000      155.1111    45700   17.05%
   1568  1262      178.0000   107      187.0000      155.1111    53727   17.05%
   1862  1517      178.6848    25      187.0000      155.1111    63616   17.05%
   2873  2213      180.3854    78      187.0000      155.1111    93573   17.05%
Elapsed time = 8.84 sec. (6172.92 ticks, tree = 110.11 MB, solutions = 4)
*  3175  2431      integral     0      186.0000      155.1111   102690   16.61%

Performing restart 1

Repeating presolve.
Tried aggregator 1 time.
MIP Presolve eliminated 50 rows and 44 columns.
MIP Presolve modified 4675 coefficients.
Reduced MIP has 6545 rows, 4551 columns, and 34010 nonzeros.
Reduced MIP has 4201 binaries, 175 generals, 0 SOSs, and 0 indicators.
Presolve time = 0.02 sec. (33.80 ticks)
Tried aggregator 1 time.
Reduced MIP has 6545 rows, 4551 columns, and 34010 nonzeros.
Reduced MIP has 4201 binaries, 175 generals, 0 SOSs, and 0 indicators.
Presolve time = 0.02 sec. (24.86 ticks)
Represolve time = 0.14 sec. (105.84 ticks)
Advanced basis not built.

GUB cover cuts applied:  0
Clique cuts applied:  1
Cover cuts applied:  15
Flow cuts applied:  3
Mixed integer rounding cuts applied:  166
Zero-half cuts applied:  18
Gomory fractional cuts applied:  10

Root node processing (before b&c):
  Real time             =    4.65 sec. (3058.99 ticks)
Parallel b&c, 8 threads:
  Real time             =    5.36 sec. (4078.81 ticks)
  Sync time (average)   =    1.68 sec.
  Wait time (average)   =    0.00 sec.
                          ------------
Total (root+branch&cut) =   10.01 sec. (7137.80 ticks)
Gap: 16.61%
Upper bound: 186
Lower bound: 155.111
End of CPLEX run. Time: 10.0089 seconds

===== New CPLEX run =====
Instance: /home/yorig/tuner/mpils-tests/instances/miplib/medium-1/neos-1456979.mps
Config: /scratch/yorig/mpils-results-grid-seconds-10-no-mip-start/medium-1/2proc/seed-5/8_neos-1456979_seed-5_20260503_052435/expansion/config_param_CPXPARAM_Preprocessing_Presolve_0_iter_4.prm
========================

Selected objective sense:  MINIMIZE
Selected objective  name:  R6771
Selected RHS        name:  B
Selected bound      name:  BOUND
Version identifier: 22.1.2.0 | 2024-11-26 | 0edbb82fd
CPXPARAM_Preprocessing_Presolve                  0
CPXPARAM_Threads                                 8
CPXPARAM_Parallel                                1
CPXPARAM_MIP_Cuts_Cliques                        1
CPXPARAM_MIP_Strategy_NodeSelect                 3
CPXPARAM_MIP_Cuts_FlowCovers                     2
CPXPARAM_MIP_Cuts_Implied                        -1
CPXPARAM_MIP_Cuts_GUBCovers                      2
CPXPARAM_MIP_Limits_GomoryCand                   800
CPXPARAM_MIP_Cuts_Gomory                         1
CPXPARAM_MIP_Cuts_PathCut                        -1
CPXPARAM_MIP_Cuts_MIRCut                         2
CPXPARAM_MIP_Cuts_Disjunctive                    -1
CPXPARAM_Emphasis_MIP                            5
CPXPARAM_MIP_Strategy_Dive                       1
CPXPARAM_TimeLimit                               10
CPXPARAM_MIP_Limits_ProbeTime                    60
Clique table members: 1880.
MIP emphasis: heuristic.
MIP search method: dynamic search.
Parallel mode: deterministic, using up to 8 threads.
Root relaxation solution time = 0.02 sec. (20.99 ticks)

        Nodes                                         Cuts/
   Node  Left     Objective  IInf  Best Integer    Best Bound    ItCnt     Gap

      0     0      154.0000    82                    154.0000      463         
      0     0      154.0000    77                    Cuts: 74      558         
*     0+    0                          281.0000      154.0000            45.20%
      0     0      154.0000    93      281.0000     Cuts: 143      782   45.20%
      0     0      154.0000    98      281.0000     Cuts: 102     1013   45.20%
*     0+    0                          279.0000      154.0000            44.80%
      0     0  -1.00000e+75     0      279.0000      154.0000     1013   44.80%
*     0+    0                          266.0000      154.0000            42.11%
*     0+    0                          255.0000      154.0000            39.61%
*     0+    0                          244.0000      154.0000            36.89%
*     0+    0                          239.0000      154.0000            35.56%
      0     0  -1.00000e+75     0      239.0000      154.0000     1013   35.56%
*     0+    0                          233.0000      154.0000            33.91%
      0     0  -1.00000e+75     0      233.0000      154.0000     1013   33.91%
Detecting symmetries...
      0     2      154.0000    78      233.0000      154.0000     1014   33.91%
Elapsed time = 5.38 sec. (3577.33 ticks, tree = 0.02 MB, solutions = 7)
      3     4      161.2520   106      233.0000      154.2773     1240   33.79%
*    13+    6                          221.0000      157.0000            28.96%
     17    15      161.6714    91      221.0000      157.0000     2007   28.96%
*    34+    7                          215.0000      157.0000            26.98%
     44    32      165.0960    77      215.0000      157.0000     3279   26.98%
     93    61      172.5000   131      215.0000      157.0000     5102   26.98%
    149   114      164.2685   141      215.0000      157.0000     6623   26.98%
    218   154      164.5359   143      215.0000      157.0000     8291   26.98%
*   277+  184                          214.0000      157.0000            26.64%
    307   220      193.4360   113      214.0000      157.0000     9986   26.64%
    425   323      170.0838   131      214.0000      157.0000    12712   26.64%
    521   399      170.8314   141      214.0000      157.0000    14158   26.64%
   1190   900      187.0411   104      214.0000      157.0000    23870   26.64%
Elapsed time = 9.35 sec. (6765.54 ticks, tree = 41.25 MB, solutions = 14)

GUB cover cuts applied:  0
Clique cuts applied:  2
Flow cuts applied:  6
Mixed integer rounding cuts applied:  252
Zero-half cuts applied:  10
Gomory fractional cuts applied:  2

Root node processing (before b&c):
  Real time             =    5.06 sec. (3574.87 ticks)
Parallel b&c, 8 threads:
  Real time             =    4.94 sec. (3796.53 ticks)
  Sync time (average)   =    1.71 sec.
  Wait time (average)   =    0.00 sec.
                          ------------
Total (root+branch&cut) =   10.00 sec. (7371.39 ticks)
Gap: 26.64%
Upper bound: 214
Lower bound: 157
End of CPLEX run. Time: 10.0058 seconds

===== New CPLEX run =====
Instance: /home/yorig/tuner/mpils-tests/instances/miplib/medium-1/neos-1456979.mps
Config: /scratch/yorig/mpils-results-grid-seconds-10-no-mip-start/medium-1/2proc/seed-5/8_neos-1456979_seed-5_20260503_052435/expansion/config_param_CPXPARAM_Preprocessing_Symmetry_0_iter_4.prm
========================

Selected objective sense:  MINIMIZE
Selected objective  name:  R6771
Selected RHS        name:  B
Selected bound      name:  BOUND
Version identifier: 22.1.2.0 | 2024-11-26 | 0edbb82fd
CPXPARAM_Threads                                 8
CPXPARAM_Parallel                                1
CPXPARAM_MIP_Cuts_Cliques                        1
CPXPARAM_MIP_Strategy_NodeSelect                 3
CPXPARAM_MIP_Cuts_FlowCovers                     2
CPXPARAM_MIP_Cuts_Implied                        -1
CPXPARAM_MIP_Cuts_GUBCovers                      2
CPXPARAM_MIP_Limits_GomoryCand                   800
CPXPARAM_MIP_Cuts_Gomory                         1
CPXPARAM_MIP_Cuts_PathCut                        -1
CPXPARAM_MIP_Cuts_MIRCut                         2
CPXPARAM_MIP_Cuts_Disjunctive                    -1
CPXPARAM_Emphasis_MIP                            5
CPXPARAM_Preprocessing_Symmetry                  0
CPXPARAM_MIP_Strategy_Dive                       1
CPXPARAM_TimeLimit                               10
CPXPARAM_MIP_Limits_ProbeTime                    60
Tried aggregator 1 time.
MIP Presolve eliminated 175 rows and 10 columns.
MIP Presolve modified 4950 coefficients.
Reduced MIP has 6595 rows, 4595 columns, and 35740 nonzeros.
Reduced MIP has 4245 binaries, 175 generals, 0 SOSs, and 0 indicators.
Presolve time = 0.01 sec. (15.92 ticks)
Probing time = 0.03 sec. (33.51 ticks)
Tried aggregator 1 time.
MIP Presolve modified 90 coefficients.
Reduced MIP has 6595 rows, 4595 columns, and 35740 nonzeros.
Reduced MIP has 4245 binaries, 175 generals, 0 SOSs, and 0 indicators.
Presolve time = 0.01 sec. (14.98 ticks)
Probing time = 0.06 sec. (33.23 ticks)
Clique table members: 20433.
MIP emphasis: heuristic.
MIP search method: dynamic search.
Parallel mode: deterministic, using up to 8 threads.
Root relaxation solution time = 0.04 sec. (38.64 ticks)

        Nodes                                         Cuts/
   Node  Left     Objective  IInf  Best Integer    Best Bound    ItCnt     Gap

      0     0      154.0000   120                    154.0000      736         
      0     0      154.0000   129                    Cuts: 76      897         
*     0+    0                          220.0000      154.0000            30.00%
      0     0      154.0000   126      220.0000      Cuts: 66     1056   30.00%
*     0+    0                          196.0000      154.0000            21.43%
      0     0      154.0000   153      196.0000     Cuts: 228     1280   21.43%
*     0+    0                          190.0000      154.0000            18.95%
      0     0  -1.00000e+75     0      190.0000      154.0000     1280   18.95%
*     0+    0                          187.0000      154.0000            17.65%
      0     2      154.0000    68      187.0000      154.0000     1280   17.65%
Elapsed time = 3.44 sec. (3022.92 ticks, tree = 0.02 MB, solutions = 4)
     89    70      164.4055   117      187.0000      154.5000     4271   17.38%
    292   248      175.0000    53      187.0000      154.5000    10077   17.38%
    562   426      183.2988    33      187.0000      154.5000    17651   17.38%
    788   638      176.2875    35      187.0000      154.5000    25838   17.38%
    996   764      185.9983    90      187.0000      154.5000    31893   17.38%
   1276   931      172.0000    69      187.0000      154.5000    38934   17.38%
   1530  1200      183.4658    74      187.0000      154.5000    48608   17.38%
   1746  1394      175.4249    79      187.0000      154.5000    57425   17.38%
   2050  1568      182.4585    54      187.0000      154.5000    63915   17.38%
   3307  2442      176.1129    97      187.0000      154.5000    97901   17.38%
Elapsed time = 6.39 sec. (6136.53 ticks, tree = 122.02 MB, solutions = 4)

Performing restart 1

Repeating presolve.
Tried aggregator 1 time.
MIP Presolve eliminated 40 rows and 35 columns.
MIP Presolve modified 4665 coefficients.
Reduced MIP has 6555 rows, 4560 columns, and 34075 nonzeros.
Reduced MIP has 4210 binaries, 175 generals, 0 SOSs, and 0 indicators.
Presolve time = 0.02 sec. (33.75 ticks)
Tried aggregator 1 time.
Reduced MIP has 6555 rows, 4560 columns, and 34075 nonzeros.
Reduced MIP has 4210 binaries, 175 generals, 0 SOSs, and 0 indicators.
Presolve time = 0.01 sec. (14.90 ticks)
Represolve time = 0.08 sec. (97.62 ticks)
   3388     0      155.0000   175      187.0000      Cuts: 63   105485   17.11%
   3388     0      156.3780   177      187.0000     Cuts: 144   105716   16.38%
   3388     0      158.4596   207      187.0000     Cuts: 128   105914   14.97%
   3388     0      162.7414   185      187.0000     Cuts: 150   106201   12.66%
   3388     0      164.0856   156      187.0000      Cuts: 99   106436   11.70%
   3388     0      165.3333   195      187.0000     Cuts: 171   106725   11.59%
   3388     0      165.4254   228      187.0000     Cuts: 118   106886   11.54%
   3388     0      166.6250   205      187.0000     Cuts: 103   107104   10.64%

GUB cover cuts applied:  2
Clique cuts applied:  1
Cover cuts applied:  9
Flow cuts applied:  11
Mixed integer rounding cuts applied:  287
Zero-half cuts applied:  129
Gomory fractional cuts applied:  18

Root node processing (before b&c):
  Real time             =    3.31 sec. (3020.42 ticks)
Parallel b&c, 8 threads:
  Real time             =    6.70 sec. (8722.75 ticks)
  Sync time (average)   =    1.06 sec.
  Wait time (average)   =    0.00 sec.
                          ------------
Total (root+branch&cut) =   10.01 sec. (11743.17 ticks)
Gap: 10.34%
Upper bound: 187
Lower bound: 167.667
End of CPLEX run. Time: 10.0072 seconds
